qbf_easy_train/easy_1976_SAT.qdimacs
p cnf 34 92
a 11 19 14 0
e 1 2 3 4 5 6 7 8 9 10 12 13 15 16 17 18 20 21 22 23 24 25 26 27 28 29 30 31 32 33 34 0
3 1 0
3 2 0
-1 -2 -3 0
1 -3 -4 0
-1 3 -4 0
1 3 4 0
-1 -3 4 0
-5 6 -7 0
5 -6 -7 0
-5 -6 7 0
5 6 7 0
8 2 0
8 7 0
-2 -7 -8 0
9 8 0
9 -3 0
-8 3 -9 0
10 9 0
10 -6 0
-9 6 -10 0
2 -11 -12 0
-2 11 -12 0
2 11 12 0
-2 -11 12 0
-12 -13 -14 0
12 13 -14 0
-12 13 14 0
12 -13 14 0
-15 10 0
-15 14 0
-10 -14 15 0
6 -16 0
-6 -16 0
17 18 0
-17 18 0
19 1 0
19 8 0
-1 -8 -19 0
-20 12 0
-20 -11 0
-12 11 20 0
21 -19 0
21 20 0
19 -20 -21 0
18 21 -22 0
-18 -21 -22 0
18 -21 22 0
-18 21 22 0
23 -16 0
23 -22 0
16 22 -23 0
-12 -6 -24 0
12 6 -24 0
-12 6 24 0
12 -6 24 0
-25 1 0
-25 -14 0
-1 14 25 0
26 24 0
26 -25 0
-24 25 -26 0
1 27 0
-1 27 0
-26 -27 -28 0
26 27 -28 0
-26 27 28 0
26 -27 28 0
-30 29 0
-30 -10 0
-29 10 30 0
31 28 0
31 -30 0
-28 30 -31 0
32 -23 0
32 -31 0
23 31 -32 0
-15 -32 -33 0
15 32 -33 0
-15 32 33 0
15 -32 33 0
34 -4 0
34 -33 0
4 33 -34 0
15 4 26 -13 28 29 -8 0
-25 -18 26 -11 10 7 0
6 -32 -27 18 0
-7 -4 -27 0
-16 -33 -26 0
25 32 4 -26 6 0
-29 31 0
-8 -20 -16 -13 -18 -31 28 0
34 0
