sat_easy_train/easy_1976_SAT.dimacs
p cnf 121 406
2 -3 -4 0
-2 3 -4 0
2 3 4 0
-2 -3 4 0
-1 4 -5 0
1 -4 -5 0
-1 -4 5 0
1 4 5 0
6 -7 -8 0
-6 7 -8 0
6 7 8 0
-6 -7 8 0
-5 8 -9 0
5 -8 -9 0
-5 -8 9 0
5 8 9 0
11 -2 -12 0
-11 2 -12 0
11 2 12 0
-11 -2 12 0
13 10 0
13 12 0
-10 -12 -13 0
14 -7 0
14 -13 0
7 13 -14 0
-15 -6 -16 0
15 6 -16 0
-15 6 16 0
15 -6 16 0
-16 -17 -18 0
16 17 -18 0
-16 17 18 0
16 -17 18 0
-19 -14 0
-19 -18 0
14 18 19 0
20 9 0
20 19 0
-9 -19 -20 0
11 21 0
-11 21 0
-22 -12 0
-22 -21 0
12 21 22 0
23 -14 0
23 -4 0
14 4 -23 0
24 -11 0
24 -23 0
11 23 -24 0
25 -12 0
25 -15 0
12 15 -25 0
25 4 -26 0
-25 -4 -26 0
25 -4 26 0
-25 4 26 0
-24 26 -27 0
24 -26 -27 0
-24 -26 27 0
24 26 27 0
-28 -16 0
-28 1 0
16 -1 28 0
12 28 -29 0
-12 -28 -29 0
12 -28 29 0
-12 28 29 0
-27 29 -30 0
27 -29 -30 0
-27 -29 30 0
27 29 30 0
-31 22 0
-31 30 0
-22 -30 31 0
-32 -20 0
-32 31 0
20 -31 32 0
12 -4 -33 0
-12 4 -33 0
12 4 33 0
-12 -4 33 0
35 34 0
35 -25 0
-34 25 -35 0
35 -1 -36 0
-35 1 -36 0
35 1 36 0
-35 -1 36 0
13 -36 -37 0
-13 36 -37 0
13 36 37 0
-13 -36 37 0
-38 -33 0
-38 37 0
33 -37 38 0
-39 40 -41 0
39 -40 -41 0
-39 -40 41 0
39 40 41 0
-5 -4 -42 0
5 4 -42 0
-5 4 42 0
5 -4 42 0
43 14 0
43 -42 0
-14 42 -43 0
45 10 0
45 4 0
-10 -4 -45 0
2 -46 0
-2 -46 0
-34 -46 -47 0
34 46 -47 0
-34 46 47 0
34 -46 47 0
48 -46 0
48 -47 0
46 47 -48 0
45 48 -49 0
-45 -48 -49 0
45 -48 49 0
-45 48 49 0
50 44 0
50 -49 0
-44 49 -50 0
51 -18 0
51 -50 0
18 50 -51 0
-52 43 0
-52 -51 0
-43 51 52 0
54 -53 0
54 -4 0
53 4 -54 0
-54 -47 -55 0
54 47 -55 0
-54 47 55 0
54 -47 55 0
4 -55 -56 0
-4 55 -56 0
4 55 56 0
-4 -55 56 0
-52 -56 -57 0
52 56 -57 0
-52 56 57 0
52 -56 57 0
-58 46 0
-58 -36 0
-46 36 58 0
58 48 -59 0
-58 -48 -59 0
58 -48 59 0
-58 48 59 0
-60 -57 0
-60 59 0
57 -59 60 0
61 36 0
61 -3 0
-36 3 -61 0
-62 58 0
-62 11 0
-58 -11 62 0
63 -12 0
63 39 0
12 -39 -63 0
-62 63 -64 0
62 -63 -64 0
-62 -63 64 0
62 63 64 0
25 -53 -65 0
-25 53 -65 0
25 53 65 0
-25 -53 65 0
-66 65 0
-66 -46 0
-65 46 66 0
-64 66 -67 0
64 -66 -67 0
-64 -66 67 0
64 66 67 0
-68 61 0
-68 -67 0
-61 67 68 0
4 -65 -69 0
-4 65 -69 0
4 65 69 0
-4 -65 69 0
70 14 0
70 -21 0
-14 21 -70 0
71 -16 0
71 -34 0
16 34 -71 0
70 71 -72 0
-70 -71 -72 0
70 -71 72 0
-70 71 72 0
-73 -69 0
-73 -72 0
69 72 73 0
-74 68 0
-74 -73 0
-68 73 74 0
75 60 0
75 -74 0
-60 74 -75 0
41 75 -76 0
-41 -75 -76 0
41 -75 76 0
-41 75 76 0
-77 -38 0
-77 76 0
38 -76 77 0
78 32 0
78 77 0
-32 -77 -78 0
80 -79 0
80 3 0
79 -3 -80 0
-80 -17 -81 0
80 17 -81 0
-80 17 81 0
80 -17 81 0
-82 -81 0
-82 34 0
81 -34 82 0
-83 82 0
-83 36 0
-82 -36 83 0
84 15 0
84 47 0
-15 -47 -84 0
85 83 0
85 -84 0
-83 84 -85 0
-86 24 0
-86 13 0
-24 -13 86 0
-87 -85 0
-87 86 0
85 -86 87 0
-88 8 0
-88 79 0
-8 -79 88 0
89 16 0
89 54 0
-16 -54 -89 0
-90 -88 0
-90 89 0
88 -89 90 0
91 11 0
91 -39 0
-11 39 -91 0
-92 90 0
-92 91 0
-90 -91 92 0
-65 -35 -94 0
65 35 -94 0
-65 35 94 0
65 -35 94 0
66 -94 -95 0
-66 94 -95 0
66 94 95 0
-66 -94 95 0
-93 95 -96 0
93 -95 -96 0
-93 -95 96 0
93 95 96 0
97 92 0
97 -96 0
-92 96 -97 0
-98 3 0
-98 -17 0
-3 17 98 0
-99 97 0
-99 -98 0
-97 98 99 0
3 79 -100 0
-3 -79 -100 0
3 -79 100 0
-3 79 100 0
8 11 -101 0
-8 -11 -101 0
8 -11 101 0
-8 11 101 0
102 -100 0
102 101 0
100 -101 -102 0
103 6 0
103 -13 0
-6 13 -103 0
104 -102 0
104 -103 0
102 103 -104 0
99 -104 -105 0
-99 104 -105 0
99 104 105 0
-99 -104 105 0
-106 94 0
-106 95 0
-94 -95 106 0
65 -16 -107 0
-65 16 -107 0
65 16 107 0
-65 -16 107 0
108 -53 0
108 14 0
53 -14 -108 0
-107 -108 -109 0
107 108 -109 0
-107 108 109 0
107 -108 109 0
110 45 0
110 -5 0
-45 5 -110 0
111 -109 0
111 110 0
109 -110 -111 0
112 106 0
112 111 0
-106 -111 -112 0
-80 15 -113 0
80 -15 -113 0
-80 -15 113 0
80 15 113 0
-114 -113 0
-114 63 0
113 -63 114 0
115 95 0
115 -114 0
-95 114 -115 0
-116 -95 0
-116 -42 0
95 42 116 0
117 -115 0
117 -116 0
115 116 -117 0
-118 -112 0
-118 -117 0
112 117 118 0
-119 -105 0
-119 -118 0
105 118 119 0
-120 -87 0
-120 119 0
87 -119 120 0
-78 -120 -121 0
78 120 -121 0
-78 120 121 0
78 -120 121 0
-58 -71 0
34 108 31 -22 -43 0
-88 107 0
75 1 -121 2 33 35 0
-16 -49 0
-16 53 10 0
31 118 106 47 113 0
-106 -72 -57 -120 -54 0
-121 -87 90 79 -4 -1 0
-85 -116 0
37 16 0
-9 106 0
-99 -67 116 -54 101 75 0
110 86 -121 70 -87 30 0
52 101 51 0
-51 -70 -44 116 -86 0
15 66 -32 -9 0
-53 -30 35 -25 117 0
-93 -29 0
-64 -85 42 40 -24 -28 0
46 -8 37 0
-110 -46 77 -62 -49 0
27 111 0
105 -43 -58 -87 0
44 -97 0
-5 -82 -80 0
-4 -94 16 -88 95 -11 0
-34 103 102 0
-107 30 -97 -83 -47 0
35 -92 110 0
-108 -103 -21 42 77 0
-119 107 0
-107 -76 -118 -13 -106 103 0
-111 -14 7 11 -44 9 0
105 -5 -80 0
84 40 -109 -64 -43 -11 0
84 53 39 0
-35 14 0
62 -84 20 78 -59 105 0
-104 -23 -47 113 6 0
-103 45 0
-19 -75 10 106 89 0
76 -53 -61 0
-82 -57 28 -114 37 -120 0
-51 -74 -66 -31 -101 56 0
51 -92 12 73 36 -85 0
-25 49 -107 0
5 98 -58 46 0
66 88 5 -121 0
-17 -98 111 7 0
111 -97 117 -103 64 -73 0
-99 -42 -70 61 0
-116 -29 -75 -3 -6 0
121 0
